0 3 5 
3 7 8 
12 16 19 
0 3 5 
3 7 8 
12 16 19 
0 3 5 
3 7 8 
12 16 19 
0 3 5 
3 7 8 
12 16 19 
0 3 5 
3 7 8 
12 16 19 
0 3 5 
3 7 8 
12 16 19 
0 3 5 
3 7 8 
12 16 19 
0 3 5 
3 7 8 
12 16 19 
0 3 5 
3 7 8 
12 16 19 
0 3 5 
3 7 8 
12 16 19 
0 3 5 
3 7 8 
12 16 19 
0 3 5 
3 7 8 
12 16 19 
0 3 5 
3 7 8 
12 16 19 
0 3 5 
3 7 8 
12 16 19 
